c CNF file corresponding to a (partial) station packing problem.
p cnf 3731 229
1 2 3 4 5 6 7 8 9 10 11 12 13 14 0
-1 -2 0
-1 -3 0
-1 -4 0
-1 -5 0
-1 -6 0
-1 -7 0
-1 -8 0
-1 -9 0
-1 -10 0
-1 -11 0
-1 -12 0
-1 -13 0
-1 -14 0
-2 -3 0
-2 -4 0
-2 -5 0
-2 -6 0
-2 -7 0
-2 -8 0
-2 -9 0
-2 -10 0
-2 -11 0
-2 -12 0
-2 -13 0
-2 -14 0
-3 -4 0
-3 -5 0
-3 -6 0
-3 -7 0
-3 -8 0
-3 -9 0
-3 -10 0
-3 -11 0
-3 -12 0
-3 -13 0
-3 -14 0
-4 -5 0
-4 -6 0
-4 -7 0
-4 -8 0
-4 -9 0
-4 -10 0
-4 -11 0
-4 -12 0
-4 -13 0
-4 -14 0
-5 -6 0
-5 -7 0
-5 -8 0
-5 -9 0
-5 -10 0
-5 -11 0
-5 -12 0
-5 -13 0
-5 -14 0
-6 -7 0
-6 -8 0
-6 -9 0
-6 -10 0
-6 -11 0
-6 -12 0
-6 -13 0
-6 -14 0
-7 -8 0
-7 -9 0
-7 -10 0
-7 -11 0
-7 -12 0
-7 -13 0
-7 -14 0
-8 -9 0
-8 -10 0
-8 -11 0
-8 -12 0
-8 -13 0
-8 -14 0
-9 -10 0
-9 -11 0
-9 -12 0
-9 -13 0
-9 -14 0
-10 -11 0
-10 -12 0
-10 -13 0
-10 -14 0
-11 -12 0
-11 -13 0
-11 -14 0
-12 -13 0
-12 -14 0
-13 -14 0
3715 3716 3717 3718 3719 3720 3721 3722 3723 3724 3725 3726 3727 3728 3729 3730 3731 0
-3715 -3716 0
-3715 -3717 0
-3715 -3718 0
-3715 -3719 0
-3715 -3720 0
-3715 -3721 0
-3715 -3722 0
-3715 -3723 0
-3715 -3724 0
-3715 -3725 0
-3715 -3726 0
-3715 -3727 0
-3715 -3728 0
-3715 -3729 0
-3715 -3730 0
-3715 -3731 0
-3716 -3717 0
-3716 -3718 0
-3716 -3719 0
-3716 -3720 0
-3716 -3721 0
-3716 -3722 0
-3716 -3723 0
-3716 -3724 0
-3716 -3725 0
-3716 -3726 0
-3716 -3727 0
-3716 -3728 0
-3716 -3729 0
-3716 -3730 0
-3716 -3731 0
-3717 -3718 0
-3717 -3719 0
-3717 -3720 0
-3717 -3721 0
-3717 -3722 0
-3717 -3723 0
-3717 -3724 0
-3717 -3725 0
-3717 -3726 0
-3717 -3727 0
-3717 -3728 0
-3717 -3729 0
-3717 -3730 0
-3717 -3731 0
-3718 -3719 0
-3718 -3720 0
-3718 -3721 0
-3718 -3722 0
-3718 -3723 0
-3718 -3724 0
-3718 -3725 0
-3718 -3726 0
-3718 -3727 0
-3718 -3728 0
-3718 -3729 0
-3718 -3730 0
-3718 -3731 0
-3719 -3720 0
-3719 -3721 0
-3719 -3722 0
-3719 -3723 0
-3719 -3724 0
-3719 -3725 0
-3719 -3726 0
-3719 -3727 0
-3719 -3728 0
-3719 -3729 0
-3719 -3730 0
-3719 -3731 0
-3720 -3721 0
-3720 -3722 0
-3720 -3723 0
-3720 -3724 0
-3720 -3725 0
-3720 -3726 0
-3720 -3727 0
-3720 -3728 0
-3720 -3729 0
-3720 -3730 0
-3720 -3731 0
-3721 -3722 0
-3721 -3723 0
-3721 -3724 0
-3721 -3725 0
-3721 -3726 0
-3721 -3727 0
-3721 -3728 0
-3721 -3729 0
-3721 -3730 0
-3721 -3731 0
-3722 -3723 0
-3722 -3724 0
-3722 -3725 0
-3722 -3726 0
-3722 -3727 0
-3722 -3728 0
-3722 -3729 0
-3722 -3730 0
-3722 -3731 0
-3723 -3724 0
-3723 -3725 0
-3723 -3726 0
-3723 -3727 0
-3723 -3728 0
-3723 -3729 0
-3723 -3730 0
-3723 -3731 0
-3724 -3725 0
-3724 -3726 0
-3724 -3727 0
-3724 -3728 0
-3724 -3729 0
-3724 -3730 0
-3724 -3731 0
-3725 -3726 0
-3725 -3727 0
-3725 -3728 0
-3725 -3729 0
-3725 -3730 0
-3725 -3731 0
-3726 -3727 0
-3726 -3728 0
-3726 -3729 0
-3726 -3730 0
-3726 -3731 0
-3727 -3728 0
-3727 -3729 0
-3727 -3730 0
-3727 -3731 0
-3728 -3729 0
-3728 -3730 0
-3728 -3731 0
-3729 -3730 0
-3729 -3731 0
-3730 -3731 0
